NAME : sampling_points.18261.tour
COMMENT : Length = 18261
COMMENT : Found by LKH [Keld Helsgaun] Wed Jul 30 13:09:37 2025
TYPE : TOUR
DIMENSION : 953
TOUR_SECTION
1
2
3
4
10
9
8
7
6
5
11
12
13
202
203
52
53
51
54
50
95
96
97
93
94
91
90
89
88
87
86
85
84
83
82
81
80
76
77
78
79
75
74
73
72
92
104
103
102
101
100
99
105
106
107
108
109
98
70
71
69
68
67
66
65
55
64
56
57
63
62
58
61
59
60
782
783
781
784
785
780
779
786
787
778
777
776
775
774
773
772
788
771
789
790
791
770
769
768
767
792
803
795
796
797
798
801
800
799
802
794
793
804
805
766
765
764
806
807
763
808
762
809
761
810
745
815
814
813
812
811
746
747
760
748
749
750
751
759
758
752
753
754
755
756
757
825
824
823
822
821
826
827
828
820
829
830
819
818
831
832
817
816
833
849
850
851
852
853
854
834
835
839
838
837
836
840
848
847
841
846
842
845
843
844
252
253
254
255
266
257
258
259
260
860
861
862
855
856
857
858
859
261
262
263
264
265
256
267
268
269
251
270
250
249
271
272
273
248
247
246
274
275
245
244
276
277
243
242
241
240
239
238
739
738
737
740
741
742
744
743
706
707
708
709
710
711
712
713
714
715
716
717
718
719
701
702
703
704
705
725
726
727
728
729
730
731
732
733
734
735
736
720
721
722
723
724
517
516
278
279
515
280
281
282
283
514
513
598
597
284
285
286
596
287
595
594
288
289
290
291
296
294
295
293
292
297
298
885
886
883
884
299
300
301
593
592
591
590
578
588
587
586
585
584
583
582
581
580
579
589
698
700
699
639
635
636
638
637
118
120
119
110
111
112
117
116
115
114
113
536
537
535
534
533
611
532
531
530
605
529
528
527
526
525
524
523
522
606
521
235
236
237
518
519
520
234
233
232
231
230
229
607
228
608
227
226
225
224
223
222
221
220
219
218
217
458
457
456
609
455
610
454
453
452
451
448
449
450
447
446
445
538
444
539
540
541
512
511
510
509
542
543
544
508
507
545
506
546
505
547
504
548
549
503
502
550
501
551
500
552
499
553
554
555
556
557
558
559
350
349
348
347
562
563
346
564
345
565
344
566
567
343
342
341
340
339
338
337
336
335
334
333
332
331
330
329
328
327
953
952
326
325
324
323
322
321
320
319
318
317
316
315
314
313
312
568
569
570
311
310
309
925
926
927
934
935
936
937
938
939
940
941
942
933
928
929
930
931
932
903
904
905
906
907
908
909
924
923
922
921
920
919
918
917
916
915
914
913
912
911
910
571
572
573
574
575
576
302
577
303
304
305
306
307
308
689
688
687
686
685
684
683
682
681
690
691
692
693
694
695
697
696
877
876
878
879
880
881
882
875
874
871
872
873
870
869
868
867
866
865
864
863
895
896
897
898
899
900
901
902
887
888
889
894
893
892
890
891
947
946
945
944
943
951
950
949
948
614
615
616
617
618
619
620
621
622
623
624
625
626
627
628
629
630
631
632
633
634
612
613
661
680
679
678
677
676
675
674
673
672
671
670
669
668
667
666
665
664
663
662
654
653
652
651
650
649
648
647
646
645
644
643
642
641
640
660
659
658
657
655
656
561
560
351
352
353
354
355
356
357
498
358
359
360
497
496
495
494
361
362
493
363
492
364
491
383
365
382
366
367
368
374
377
376
375
378
379
380
381
371
370
372
369
373
163
162
161
160
153
152
151
150
149
148
147
146
145
144
158
157
156
155
154
159
174
173
172
171
170
169
168
167
166
164
165
386
385
387
388
126
127
128
129
130
131
132
133
134
135
136
137
138
139
140
121
143
142
141
122
123
124
125
389
390
384
391
392
393
490
489
394
395
488
396
487
397
486
398
485
399
484
601
602
481
179
180
181
182
175
176
177
178
482
483
400
600
401
599
402
403
404
405
604
480
603
479
478
477
406
476
407
408
475
474
409
410
473
411
472
471
470
412
413
414
415
416
417
418
419
420
421
422
423
424
469
468
425
467
466
465
464
426
463
427
428
429
430
431
432
433
434
435
436
437
438
439
440
186
185
443
183
184
442
441
187
30
31
32
33
14
15
16
17
18
19
20
21
22
23
24
25
26
27
28
29
46
45
44
43
42
41
40
39
38
37
36
35
34
49
48
47
459
460
461
462
216
215
214
213
212
211
188
193
192
191
189
190
194
195
210
196
197
209
208
198
207
199
206
205
204
201
200
-1
EOF
